Test: hole015_shuffled.cnf
Options: -no-inverting-opt -activity-look-freq=1
WARNING: for repeatability, setting FPU to use double precision
============================[ Problem Statistics ]=============================
|                                                                             |
|  Number of symmetries:           29                                         |
|  Number of invertingSyms:         0                                         |
|  Number of variables:           240                                         |
|  Number of clauses:            1816                                         |
|  Parse time:                   0.00 s                                       |
|                                                                             |
============================[ Search Statistics ]==============================
| Conflicts |          ORIGINAL         |          LEARNT          | Progress |
|           |    Vars  Clauses Literals |    Limit  Clauses Lit/Cl |          |
===============================================================================
|       100 |     240     1816     3840 |      665      106     91 |  0.002 % |
|       250 |     240     1816     3840 |      732      311     62 |  0.002 % |
|       475 |     240     1816     3840 |      805      672     59 |  0.002 % |
|       812 |     240     1816     3840 |      886      807     63 |  0.002 % |
|      1318 |     240     1816     3840 |      974      690     58 |  0.002 % |
|      2077 |     240     1816     3840 |     1072     1010     55 |  0.002 % |
|      3216 |     240     1816     3840 |     1179      996     76 |  0.002 % |
|      4924 |     240     1816     3840 |     1297      785     88 |  0.002 % |
|      7486 |     240     1816     3840 |     1427      768     82 |  0.002 % |
|     11330 |     240     1816     3840 |     1570      849     87 |  0.002 % |
|     17096 |     240     1816     3840 |     1727     1696     82 |  0.002 % |
|     25745 |     240     1816     3840 |     1899     1769     89 |  0.002 % |
|     38719 |     240     1816     3840 |     2089     1140     73 |  0.002 % |
|     58180 |     240     1816     3840 |     2298     1971     81 |  0.002 % |
|     87372 |     240     1816     3840 |     2528     1741     93 |  0.002 % |
|    131161 |     240     1816     3840 |     2781     1483     87 |  0.002 % |
|    196845 |     240     1816     3840 |     3059     2402     79 |  0.002 % |
|    295371 |     240     1816     3840 |     3365     2001     92 |  0.002 % |
|    443160 |     240     1816     3840 |     3702     2457     83 |  0.002 % |
|    664843 |     240     1816     3840 |     4072     2460     84 |  0.002 % |
|    997368 |     240     1816     3840 |     4479     2256     73 |  0.002 % |
===============================================================================
restarts              : 2047
conflicts             : 1067474        (14963 /sec)
symconflicts          : 166242         (2330 /sec)
decisions             : 2013874        (0.00 % random) (28229 /sec)
propagations          : 63512211       (890269 /sec)
sympropagations       : 825254         (11568 /sec)
conflict literals     : 96009089       (6.11 % deleted)
literals     : 96009089       (6.11 % deleted)

HEURISTIC USAGES
random                : 0           
activity w/ lookahead : 2013874     
activity no lookahead : 0           
original sp           : 0           
sym count             : 0           

Memory used           : 12.00 MB
CPU time              : 71.3405 s

UNSATISFIABLE
